p cnf 7230 15
-3724 -3728 -3730 4240 -4245 0
3724 -4241 0
3728 -4241 0
-4241 4245 0
3730 -4241 0
-2716 -3986 4238 0
2716 -4239 0
-4240 4241 0
-4238 4239 0
3986 -4239 0
-4243 4245 0
4244 -4245 0
4242 -4244 0
-3718 4243 0
3718 -4242 0
